p tw 94 105
1 2
2 13
3 4
4 5
5 6
6 7
7 8
8 9
9 10
9 17
10 11
11 12
12 14
13 24
14 15
14 17
15 16
16 7
17 18
18 19
19 20
20 21
21 22
22 23
22 27
23 25
24 35
25 26
25 80
26 27
26 80
27 28
28 29
29 30
29 36
30 31
31 32
32 33
33 34
34 70
35 46
36 37
37 38
38 39
38 40
39 40
39 47
40 41
41 42
42 43
43 44
44 45
45 70
46 57
47 48
48 49
49 50
50 51
51 52
52 53
53 54
54 55
55 56
56 58
57 68
58 59
58 64
59 60
60 61
61 62
62 63
63 70
64 65
65 66
66 67
67 69
68 79
69 70
70 71
71 72
71 74
72 73
73 76
74 75
75 76
76 77
77 78
78 20
79 90
80 81
81 82
82 79
83 84
84 85
85 86
86 87
86 88
87 93
88 89
89 91
90 3
90 83
91 92
92 24
93 94
